(set-info :smt-lib-version 2.6)
(set-info :category "crafted")
(set-logic QF_FFA)
(define-sort FF0 () (_ FiniteField 52435875175126190479447740508185965837690552500527637822603658699938581184513))
(declare-fun a_n6_alt () FF0)
(declare-fun d_n1_alt () FF0)
(declare-fun b_n4_alt () FF0)
(declare-fun c_n2_alt () FF0)
(declare-fun f_n5_alt () FF0)
(declare-fun e_n0_alt () FF0)
(declare-fun return_n3_alt () FF0)
(declare-fun is_zero_inv_n7_alt () FF0)
(declare-fun a_n6 () FF0)
(declare-fun d_n1 () FF0)
(declare-fun b_n4 () FF0)
(declare-fun c_n2 () FF0)
(declare-fun f_n5 () FF0)
(declare-fun e_n0 () FF0)
(declare-fun return_n3 () FF0)
(declare-fun is_zero_inv_n7 () FF0)
(assert 
  (let ((let0 (as ff0 FF0)))
  (let ((let1 (as ff1 FF0)))
  (let ((let2 a_n6_alt))
  (let ((let3 d_n1_alt))
  (let ((let4 (as ff52435875175126190479447740508185965837690552500527637822603658699938581184512 FF0)))
  (let ((let5 b_n4_alt))
  (let ((let6 (ff.mul let5 let4)))
  (let ((let7 c_n2_alt))
  (let ((let8 f_n5_alt))
  (let ((let9 e_n0_alt))
  (let ((let10 (ff.add let9 let8 let7 let6 let3 let2 let1)))
  (let ((let11 return_n3_alt))
  (let ((let12 (ff.mul let11 let4)))
  (let ((let13 (ff.add let12 let1)))
  (let ((let14 (ff.mul let13 let10)))
  (let ((let15 (= let14 let0)))
  (let ((let16 is_zero_inv_n7_alt))
  (let ((let17 (ff.mul let16 let10)))
  (let ((let18 (= let17 let11)))
  (let ((let19 (and let18 let15)))
  (let ((let20 a_n6))
  (let ((let21 d_n1))
  (let ((let22 b_n4))
  (let ((let23 (ff.mul let22 let4)))
  (let ((let24 c_n2))
  (let ((let25 f_n5))
  (let ((let26 e_n0))
  (let ((let27 (ff.add let26 let25 let24 let23 let21 let20 let1)))
  (let ((let28 return_n3))
  (let ((let29 (ff.mul let28 let4)))
  (let ((let30 (ff.add let29 let1)))
  (let ((let31 (ff.mul let30 let27)))
  (let ((let32 (= let31 let0)))
  (let ((let33 is_zero_inv_n7))
  (let ((let34 (ff.mul let33 let27)))
  (let ((let35 (= let34 let28)))
  (let ((let36 (and let35 let32)))
  (let ((let37 (= let28 let11)))
  (let ((let38 (not let37)))
  (let ((let39 (= let21 let3)))
  (let ((let40 (= let22 let5)))
  (let ((let41 (= let25 let8)))
  (let ((let42 (= let26 let9)))
  (let ((let43 (= let20 let2)))
  (let ((let44 (= let24 let7)))
  (let ((let45 (and let44 let43 let42 let41 let40 let39)))
  (let ((let46 (and let45 let38 let36 let19)))
  let46
)))))))))))))))))))))))))))))))))))))))))))))))
)
(check-sat)
